21° run output:
{
    "Function": "kroA750.tsp",
    "Problem dimension": [
        106,
        724,
        474,
        392,
        171,
        273,
        555,
        85,
        715,
        733,
        504,
        103,
        716,
        415,
        523,
        678,
        574,
        61,
        714,
        134,
        675,
        388,
        372,
        186,
        571,
        598,
        143,
        419,
        259,
        179,
        680,
        560,
        456,
        670,
        140,
        156,
        213,
        131,
        248,
        447,
        397,
        190,
        206,
        9,
        418,
        162,
        612,
        691,
        596,
        81,
        577,
        163,
        10,
        115,
        599,
        296,
        263,
        195,
        708,
        346,
        155,
        269,
        728,
        539,
        128,
        40,
        546,
        108,
        512,
        494,
        425,
        470,
        489,
        679,
        702,
        421,
        124,
        99,
        317,
        391,
        45,
        66,
        129,
        705,
        370,
        126,
        435,
        363,
        709,
        32,
        580,
        717,
        274,
        334,
        706,
        721,
        5,
        235,
        70,
        541,
        567,
        696,
        514,
        71,
        4,
        309,
        102,
        613,
        97,
        90,
        318,
        292,
        403,
        336,
        542,
        426,
        411,
        325,
        684,
        0,
        166,
        22,
        282,
        204,
        353,
        665,
        362,
        270,
        529,
        238,
        64,
        314,
        110,
        449,
        637,
        172,
        650,
        582,
        511,
        394,
        367,
        146,
        176,
        749,
        291,
        349,
        153,
        624,
        355,
        433,
        608,
        149,
        253,
        483,
        710,
        460,
        639,
        281,
        636,
        223,
        557,
        49,
        240,
        350,
        739,
        112,
        498,
        198,
        573,
        88,
        417,
        127,
        96,
        519,
        451,
        232,
        472,
        133,
        73,
        130,
        266,
        231,
        730,
        216,
        19,
        256,
        375,
        645,
        289,
        493,
        74,
        139,
        119,
        731,
        202,
        509,
        243,
        165,
        87,
        46,
        659,
        138,
        184,
        234,
        505,
        502,
        416,
        420,
        410,
        307,
        654,
        182,
        132,
        621,
        245,
        371,
        193,
        695,
        298,
        251,
        121,
        43,
        615,
        333,
        203,
        481,
        638,
        595,
        52,
        62,
        287,
        95,
        618,
        443,
        444,
        606,
        538,
        386,
        625,
        630,
        241,
        208,
        389,
        534,
        199,
        368,
        104,
        732,
        653,
        29,
        390,
        100,
        651,
        56,
        681,
        510,
        194,
        516,
        436,
        305,
        646,
        666,
        497,
        161,
        707,
        692,
        31,
        527,
        290,
        652,
        641,
        428,
        522,
        247,
        720,
        116,
        584,
        338,
        145,
        448,
        700,
        634,
        501,
        380,
        36,
        364,
        160,
        285,
        431,
        471,
        530,
        434,
        215,
        327,
        17,
        312,
        54,
        24,
        262,
        453,
        396,
        740,
        711,
        118,
        745,
        246,
        576,
        205,
        13,
        35,
        341,
        742,
        566,
        301,
        552,
        295,
        167,
        676,
        326,
        669,
        366,
        402,
        212,
        324,
        515,
        158,
        147,
        39,
        737,
        26,
        230,
        655,
        304,
        462,
        77,
        736,
        735,
        28,
        521,
        192,
        747,
        53,
        401,
        697,
        254,
        84,
        531,
        57,
        16,
        593,
        58,
        441,
        398,
        221,
        518,
        743,
        330,
        217,
        439,
        473,
        617,
        315,
        41,
        207,
        86,
        201,
        382,
        6,
        438,
        657,
        369,
        503,
        450,
        701,
        233,
        113,
        78,
        490,
        508,
        109,
        27,
        393,
        590,
        310,
        1,
        174,
        354,
        532,
        741,
        271,
        575,
        407,
        408,
        726,
        558,
        218,
        297,
        551,
        93,
        461,
        525,
        142,
        592,
        492,
        168,
        150,
        378,
        98,
        196,
        303,
        464,
        320,
        226,
        387,
        553,
        63,
        591,
        723,
        685,
        170,
        105,
        335,
        189,
        528,
        220,
        178,
        495,
        688,
        159,
        258,
        359,
        704,
        674,
        422,
        656,
        466,
        328,
        725,
        361,
        164,
        405,
        323,
        122,
        623,
        500,
        477,
        412,
        663,
        446,
        275,
        377,
        673,
        689,
        559,
        69,
        607,
        47,
        587,
        180,
        526,
        211,
        496,
        30,
        154,
        272,
        480,
        640,
        729,
        358,
        487,
        540,
        544,
        594,
        581,
        482,
        55,
        545,
        442,
        738,
        642,
        89,
        579,
        20,
        227,
        177,
        252,
        690,
        65,
        265,
        413,
        430,
        268,
        455,
        627,
        365,
        548,
        517,
        597,
        414,
        277,
        136,
        229,
        302,
        556,
        293,
        383,
        345,
        533,
        703,
        236,
        329,
        14,
        677,
        8,
        748,
        647,
        488,
        219,
        181,
        242,
        578,
        399,
        458,
        288,
        513,
        284,
        356,
        616,
        348,
        7,
        628,
        635,
        484,
        698,
        11,
        25,
        440,
        649,
        404,
        60,
        319,
        406,
        524,
        34,
        662,
        228,
        114,
        306,
        239,
        101,
        687,
        169,
        543,
        75,
        279,
        601,
        535,
        283,
        360,
        424,
        561,
        427,
        381,
        554,
        569,
        713,
        682,
        734,
        299,
        537,
        457,
        373,
        727,
        337,
        210,
        722,
        486,
        563,
        188,
        173,
        694,
        50,
        478,
        626,
        385,
        409,
        237,
        3,
        671,
        610,
        308,
        137,
        187,
        225,
        286,
        547,
        611,
        429,
        79,
        276,
        570,
        686,
        2,
        123,
        589,
        244,
        664,
        76,
        250,
        568,
        520,
        374,
        603,
        622,
        384,
        672,
        59,
        72,
        339,
        347,
        94,
        175,
        278,
        23,
        183,
        120,
        144,
        643,
        712,
        454,
        719,
        602,
        485,
        683,
        644,
        135,
        620,
        91,
        668,
        51,
        191,
        141,
        107,
        92,
        631,
        632,
        619,
        311,
        468,
        331,
        400,
        48,
        658,
        200,
        572,
        565,
        37,
        82,
        224,
        249,
        395,
        536,
        661,
        600,
        445,
        583,
        549,
        260,
        257,
        550,
        586,
        267,
        746,
        379,
        452,
        294,
        660,
        151,
        222,
        261,
        351,
        699,
        467,
        83,
        44,
        507,
        125,
        463,
        357,
        255,
        437,
        80,
        18,
        344,
        33,
        21,
        38,
        148,
        605,
        342,
        42,
        111,
        693,
        67,
        340,
        280,
        423,
        648,
        376,
        585,
        465,
        744,
        185,
        15,
        629,
        491,
        469,
        313,
        197,
        12,
        343,
        609,
        479,
        562,
        614,
        332,
        506,
        322,
        499,
        352,
        432,
        475,
        316,
        117,
        667,
        564,
        459,
        718,
        476,
        68,
        588,
        321,
        604,
        152,
        214,
        209,
        633,
        300,
        157,
        264
    ],
    "Global Optimum": 0,
    "Algorithm": "Genetic algorithm",
    "Parameters": {
        "population": 30,
        "offspring": 30,
        "mutation probability": 0.0013333333333333333,
        "crossover probability": 0.9
    },
    "Fitness": 945936,
    "Solution": [
        106,
        724,
        474,
        392,
        171,
        273,
        555,
        85,
        715,
        733,
        504,
        103,
        716,
        415,
        523,
        678,
        574,
        61,
        714,
        134,
        675,
        388,
        372,
        186,
        571,
        598,
        143,
        419,
        259,
        179,
        680,
        560,
        456,
        670,
        140,
        156,
        213,
        131,
        248,
        447,
        397,
        190,
        206,
        9,
        418,
        162,
        612,
        691,
        596,
        81,
        577,
        163,
        10,
        115,
        599,
        296,
        263,
        195,
        708,
        346,
        155,
        269,
        728,
        539,
        128,
        40,
        546,
        108,
        512,
        494,
        425,
        470,
        489,
        679,
        702,
        421,
        124,
        99,
        317,
        391,
        45,
        66,
        129,
        705,
        370,
        126,
        435,
        363,
        709,
        32,
        580,
        717,
        274,
        334,
        706,
        721,
        5,
        235,
        70,
        541,
        567,
        696,
        514,
        71,
        4,
        309,
        102,
        613,
        97,
        90,
        318,
        292,
        403,
        336,
        542,
        426,
        411,
        325,
        684,
        0,
        166,
        22,
        282,
        204,
        353,
        665,
        362,
        270,
        529,
        238,
        64,
        314,
        110,
        449,
        637,
        172,
        650,
        582,
        511,
        394,
        367,
        146,
        176,
        749,
        291,
        349,
        153,
        624,
        355,
        433,
        608,
        149,
        253,
        483,
        710,
        460,
        639,
        281,
        636,
        223,
        557,
        49,
        240,
        350,
        739,
        112,
        498,
        198,
        573,
        88,
        417,
        127,
        96,
        519,
        451,
        232,
        472,
        133,
        73,
        130,
        266,
        231,
        730,
        216,
        19,
        256,
        375,
        645,
        289,
        493,
        74,
        139,
        119,
        731,
        202,
        509,
        243,
        165,
        87,
        46,
        659,
        138,
        184,
        234,
        505,
        502,
        416,
        420,
        410,
        307,
        654,
        182,
        132,
        621,
        245,
        371,
        193,
        695,
        298,
        251,
        121,
        43,
        615,
        333,
        203,
        481,
        638,
        595,
        52,
        62,
        287,
        95,
        618,
        443,
        444,
        606,
        538,
        386,
        625,
        630,
        241,
        208,
        389,
        534,
        199,
        368,
        104,
        732,
        653,
        29,
        390,
        100,
        651,
        56,
        681,
        510,
        194,
        516,
        436,
        305,
        646,
        666,
        497,
        161,
        707,
        692,
        31,
        527,
        290,
        652,
        641,
        428,
        522,
        247,
        720,
        116,
        584,
        338,
        145,
        448,
        700,
        634,
        501,
        380,
        36,
        364,
        160,
        285,
        431,
        471,
        530,
        434,
        215,
        327,
        17,
        312,
        54,
        24,
        262,
        453,
        396,
        740,
        711,
        118,
        745,
        246,
        576,
        205,
        13,
        35,
        341,
        742,
        566,
        301,
        552,
        295,
        167,
        676,
        326,
        669,
        366,
        402,
        212,
        324,
        515,
        158,
        147,
        39,
        737,
        26,
        230,
        655,
        304,
        462,
        77,
        736,
        735,
        28,
        521,
        192,
        747,
        53,
        401,
        697,
        254,
        84,
        531,
        57,
        16,
        593,
        58,
        441,
        398,
        221,
        518,
        743,
        330,
        217,
        439,
        473,
        617,
        315,
        41,
        207,
        86,
        201,
        382,
        6,
        438,
        657,
        369,
        503,
        450,
        701,
        233,
        113,
        78,
        490,
        508,
        109,
        27,
        393,
        590,
        310,
        1,
        174,
        354,
        532,
        741,
        271,
        575,
        407,
        408,
        726,
        558,
        218,
        297,
        551,
        93,
        461,
        525,
        142,
        592,
        492,
        168,
        150,
        378,
        98,
        196,
        303,
        464,
        320,
        226,
        387,
        553,
        63,
        591,
        723,
        685,
        170,
        105,
        335,
        189,
        528,
        220,
        178,
        495,
        688,
        159,
        258,
        359,
        704,
        674,
        422,
        656,
        466,
        328,
        725,
        361,
        164,
        405,
        323,
        122,
        623,
        500,
        477,
        412,
        663,
        446,
        275,
        377,
        673,
        689,
        559,
        69,
        607,
        47,
        587,
        180,
        526,
        211,
        496,
        30,
        154,
        272,
        480,
        640,
        729,
        358,
        487,
        540,
        544,
        594,
        581,
        482,
        55,
        545,
        442,
        738,
        642,
        89,
        579,
        20,
        227,
        177,
        252,
        690,
        65,
        265,
        413,
        430,
        268,
        455,
        627,
        365,
        548,
        517,
        597,
        414,
        277,
        136,
        229,
        302,
        556,
        293,
        383,
        345,
        533,
        703,
        236,
        329,
        14,
        677,
        8,
        748,
        647,
        488,
        219,
        181,
        242,
        578,
        399,
        458,
        288,
        513,
        284,
        356,
        616,
        348,
        7,
        628,
        635,
        484,
        698,
        11,
        25,
        440,
        649,
        404,
        60,
        319,
        406,
        524,
        34,
        662,
        228,
        114,
        306,
        239,
        101,
        687,
        169,
        543,
        75,
        279,
        601,
        535,
        283,
        360,
        424,
        561,
        427,
        381,
        554,
        569,
        713,
        682,
        734,
        299,
        537,
        457,
        373,
        727,
        337,
        210,
        722,
        486,
        563,
        188,
        173,
        694,
        50,
        478,
        626,
        385,
        409,
        237,
        3,
        671,
        610,
        308,
        137,
        187,
        225,
        286,
        547,
        611,
        429,
        79,
        276,
        570,
        686,
        2,
        123,
        589,
        244,
        664,
        76,
        250,
        568,
        520,
        374,
        603,
        622,
        384,
        672,
        59,
        72,
        339,
        347,
        94,
        175,
        278,
        23,
        183,
        120,
        144,
        643,
        712,
        454,
        719,
        602,
        485,
        683,
        644,
        135,
        620,
        91,
        668,
        51,
        191,
        141,
        107,
        92,
        631,
        632,
        619,
        311,
        468,
        331,
        400,
        48,
        658,
        200,
        572,
        565,
        37,
        82,
        224,
        249,
        395,
        536,
        661,
        600,
        445,
        583,
        549,
        260,
        257,
        550,
        586,
        267,
        746,
        379,
        452,
        294,
        660,
        151,
        222,
        261,
        351,
        699,
        467,
        83,
        44,
        507,
        125,
        463,
        357,
        255,
        437,
        80,
        18,
        344,
        33,
        21,
        38,
        148,
        605,
        342,
        42,
        111,
        693,
        67,
        340,
        280,
        423,
        648,
        376,
        585,
        465,
        744,
        185,
        15,
        629,
        491,
        469,
        313,
        197,
        12,
        343,
        609,
        479,
        562,
        614,
        332,
        506,
        322,
        499,
        352,
        432,
        475,
        316,
        117,
        667,
        564,
        459,
        718,
        476,
        68,
        588,
        321,
        604,
        152,
        214,
        209,
        633,
        300,
        157,
        264
    ],
    "Nb of functions evaluations": 200010,
    "Computational time in seconds": 1704.6377124786377,
    "Stopping criterion in evaluations": 200000
}